p cnf 7230 17
4660 6139 6252 0
-6139 -6252 0
-5164 -6149 -6257 0
-5162 -6143 -6255 0
-5160 -6135 6253 0
5164 -6258 0
5162 -6256 0
5160 -6254 0
6257 6258 0
6255 6256 0
-6253 6254 0
6149 -6258 0
6143 -6256 0
6135 -6254 0
-1652 -6260 0
6251 6252 0
-6251 -6252 0
